
Value of objective function: 0

Actual values of the variables:
pL1_div_from_law                0
comp_pos0                       0
comp_neg0                       0
comp_pos1                       0
comp_neg1                       0
comp_pos2                       0
comp_neg2                       0
comp_pos3                       0
comp_neg3                       0
comp_pos4                       0
comp_neg4                       0
comp_pos5                       0
comp_neg5                       0
comp_pos6                       0
comp_neg6                       0
comp_pos7                       0
comp_neg7                       0
comp_pos8                       0
comp_neg8                       0
comp_pos9                       0
comp_neg9                       0
comp_pos10                      0
comp_neg10                      0
comp_pos11                      0
comp_neg11                      0
comp_pos12                      0
comp_neg12                      0
comp_pos13                      0
comp_neg13                      0
z_c0_t0               1.32138e+10
p0_c0_t0              3.77066e+09
p1_c0_t0              3.75609e+09
p2_c0_t0              5.39273e+09
p3_c0_t0              2.94347e+08
diff0                           0
normdiff0                       0
z_c0_t1               1.47752e+10
p0_c0_t1              3.24373e+09
p1_c0_t1              4.12874e+09
p2_c0_t1              6.17098e+09
p3_c0_t1              1.23174e+09
diff1                           0
normdiff1                       0
z_c1_t0               1.65566e+10
p0_c1_t0               3.8124e+09
p1_c1_t0              4.82625e+09
p2_c1_t0              7.78893e+09
p3_c1_t0              1.28986e+08
diff2                           0
normdiff2                       0
z_c1_t1               1.94959e+10
p0_c1_t1              3.84176e+09
p1_c1_t1              6.79731e+09
p2_c1_t1               7.9856e+09
p3_c1_t1              8.71214e+08
diff3                           0
normdiff3                       0
z_c2_t0               7.24754e+09
p0_c2_t0              1.30075e+09
p1_c2_t0              1.96943e+09
p2_c2_t0              3.86334e+09
p3_c2_t0              1.14021e+08
diff4                           0
normdiff4                       0
z_c2_t1               7.97123e+09
p0_c2_t1              1.05583e+09
p1_c2_t1              2.27899e+09
p2_c2_t1              4.33814e+09
p3_c2_t1              2.98266e+08
diff5                           0
normdiff5                       0
z_c3_t0               1.22612e+10
p0_c3_t0              2.33007e+09
p1_c3_t0              3.33363e+09
p2_c3_t0              5.64221e+09
p3_c3_t0               9.5527e+08
diff6                           0
normdiff6                       0
z_c3_t1               1.42798e+10
p0_c3_t1              2.66162e+09
p1_c3_t1               3.4137e+09
p2_c3_t1              5.65576e+09
p3_c3_t1               2.5487e+09
diff7                           0
normdiff7                       0
z_c4_t0               7.97197e+09
p0_c4_t0              1.02843e+09
p1_c4_t0              3.73036e+09
p2_c4_t0              3.12163e+09
p3_c4_t0              9.15382e+07
diff8                           0
normdiff8                       0
z_c4_t1                8.9819e+09
p0_c4_t1              1.06334e+09
p1_c4_t1              3.43398e+09
p2_c4_t1              4.28098e+09
p3_c4_t1              2.03603e+08
diff9                           0
normdiff9                       0
z_c5_t0               1.00642e+10
p0_c5_t0              1.83174e+09
p1_c5_t0              3.14757e+09
p2_c5_t0              5.03452e+09
p3_c5_t0              5.03208e+07
diff10                          0
normdiff10                      0
z_c5_t1                1.2016e+10
p0_c5_t1              1.33804e+09
p1_c5_t1              3.11744e+09
p2_c5_t1              7.22543e+09
p3_c5_t1              3.35097e+08
diff11                          0
normdiff11                      0
z_c6_t0               1.81204e+10
p0_c6_t0              3.27871e+09
p1_c6_t0              3.97645e+09
p2_c6_t0              1.07408e+10
p3_c6_t0              1.24388e+08
diff12                          0
normdiff12                      0
z_c6_t1               2.06345e+10
p0_c6_t1              3.56041e+09
p1_c6_t1              3.64437e+09
p2_c6_t1              1.28661e+10
p3_c6_t1              5.63565e+08
diff13                          0
normdiff13                      0
